12	8	5		
0	1	J1		
1	2	J1		
3	4	J2		
4	5	J2		
6	7	J3		
7	8	J3		
9	10	J4		
10	11	J4		
1	0	147		
2	3	140	1	130
2	3	150	4	160
2	0	214	2	150
2	2	87	1	66
1	4	178		
2	0	87	1	62
1	2	180		
2	3	190	4	100
2	0	87	1	65
1	4	173		
2	3	145	2	136
0	20	27	28	20
20	0	20	20	27
27	20	0	22	14
28	20	22	0	39
20	27	14	39	0
